
Gurobi 12.0.2 (win64) logging started Thu Jun  5 10:49:22 2025

Set parameter LogFile to value "C:\Ioana\_uni\honours\slp\algorithm\Main_files\results\others\prox_tubules\Task_014_Sample001_irr_gurobi.log"
Gurobi Optimizer version 12.0.2 build v12.0.2rc0 (win64 - Windows 11.0 (26100.2))

CPU model: Intel(R) Core(TM) Ultra 5 125H, instruction set [SSE2|AVX|AVX2]
Thread count: 14 physical cores, 18 logical processors, using up to 18 threads

Non-default parameters:
TimeLimit  2200

Optimize a model with 47658 rows, 34799 columns and 147846 nonzeros
Model fingerprint: 0xef816417
Variable types: 17405 continuous, 17394 integer (17394 binary)
Coefficient statistics:
  Matrix range     [1e-04, 8e+04]
  Objective range  [1e-04, 1e+01]
  Bounds range     [1e+00, 1e+03]
  RHS range        [1e+00, 1e+00]
Presolve removed 31205 rows and 21840 columns
Presolve time: 0.37s
Presolved: 16453 rows, 12959 columns, 54680 nonzeros
Variable types: 6413 continuous, 6546 integer (6546 binary)

Root relaxation: objective 6.595755e-03, 1950 iterations, 0.13 seconds (0.22 work units)

    Nodes    |    Current Node    |     Objective Bounds      |     Work
 Expl Unexpl |  Obj  Depth IntInf | Incumbent    BestBd   Gap | It/Node Time

     0     0    0.00660    0   12          -    0.00660      -     -    0s
H    0     0                       6.3594004    0.00660   100%     -    0s
H    0     0                       6.3594004    5.00000  21.4%     -    1s
     0     0    5.91927    0   29    6.35940    5.91927  6.92%     -    1s
     0     0    6.15585    0   23    6.35940    6.15585  3.20%     -    1s
     0     0    6.19068    0   50    6.35940    6.19068  2.65%     -    2s
     0     0    6.27320    0   50    6.35940    6.27320  1.36%     -    2s
     0     0    6.29866    0   39    6.35940    6.29866  0.96%     -    2s
     0     0    6.29871    0   39    6.35940    6.29871  0.95%     -    2s
     0     2    6.29871    0   38    6.35940    6.29871  0.95%     -    2s

Cutting planes:
  Cover: 4
  Implied bound: 16
  MIR: 17
  Flow cover: 62
  Flow path: 10
  Network: 19
  Relax-and-lift: 1

Explored 161 nodes (15342 simplex iterations) in 4.12 seconds (4.35 work units)
Thread count was 18 (of 18 available processors)

Solution count 1: 6.3594 

Optimal solution found (tolerance 1.00e-04)
Best objective 6.359400441187e+00, best bound 6.359400441187e+00, gap 0.0000%
